p cnf 596 1477
c max 1 2 3 4 5 6 7 8 9 10 11 12 13 14 15 16 17 18 19 20 21 22 23 24 25 26 27 28 29 30 31 32 33 34 35 36 37 38 39 40 41 42 43 44 45 46 47 48 49 50 51 52 53 54 0
c ind 55 56 57 58 59 60 61 62 63 64 65 66 67 68 69 70 71 72 73 74 75 76 77 78 79 80 81 82 83 84 85 86 87 88 89 90 91 92 93 94 95 96 97 98 99 100 101 102 103 104 105 106 107 108 109 110 111 112 113 114 115 116 117 118 119 120 121 122 123 124 125 126 127 128 129 130 131 132 133 134 135 136 137 138 139 140 141 142 143 144 145 146 147 148 149 150 151 152 153 154 155 156 157 158 159 160 161 162 163 164 165 166 167 168 169 170 171 172 173 174 175 176 177 178 179 180 181 182 183 184 185 186 187 188 189 190 191 192 193 194 195 196 197 198 199 200 201 202 203 204 205 206 207 208 209 210 211 212 213 214 215 216 217 218 219 220 221 222 223 224 225 226 227 228 229 230 231 232 233 234 235 236 237 238 239 240 241 242 243 244 245 246 247 248 249 250 251 252 253 254 255 256 257 258 259 260 261 262 263 264 265 266 267 268 269 270 271 272 273 274 275 276 277 278 279 280 281 282 283 284 285 286 287 288 289 290 291 292 293 294 295 296 297 298 299 300 301 302 303 304 305 306 307 308 309 310 311 312 313 314 315 316 317 318 319 320 321 322 323 324 325 326 327 328 329 330 331 332 333 334 335 336 337 338 339 340 341 342 343 344 345 346 347 348 349 350 351 352 353 354 355 356 357 358 359 360 361 362 363 364 365 366 367 368 369 370 371 372 373 374 375 376 377 378 379 380 381 382 383 384 385 386 387 388 389 390 391 392 393 394 395 396 397 398 399 400 401 402 403 404 405 406 407 408 409 410 411 412 413 414 415 416 417 418 419 420 421 422 423 424 425 426 427 428 429 430 431 432 433 434 435 436 437 438 439 440 441 442 443 444 445 446 447 448 449 450 451 452 453 454 455 456 457 458 459 460 461 462 463 464 465 466 467 468 469 470 471 472 473 474 475 476 477 478 479 480 481 482 483 484 485 486 487 488 489 490 491 492 493 494 495 496 497 498 499 500 501 502 503 504 505 506 507 508 509 510 511 512 513 514 515 516 517 518 519 520 521 522 523 524 525 526 527 528 529 530 531 532 533 534 535 536 537 538 539 540 541 542 543 544 545 546 547 548 549 550 551 552 553 554 555 556 557 558 559 560 561 562 563 564 565 566 567 568 569 570 571 572 573 574 575 576 577 578 579 580 581 582 583 584 585 586 587 588 589 590 591 592 593 594 595 596 0
55 1 0
-55 -1 0
56 2 0
-56 -2 0
57 3 0
-57 -3 0
58 4 0
-58 -4 0
59 5 0
-59 -5 0
60 6 0
-60 -6 0
61 7 0
-61 -7 0
62 8 0
-62 -8 0
63 9 0
-63 -9 0
64 10 0
-64 -10 0
65 11 0
-65 -11 0
66 12 0
-66 -12 0
67 26 0
-67 -26 0
68 67 0
-68 -67 0
69 28 0
-69 -28 0
70 42 0
-70 -42 0
71 70 0
-71 -70 0
72 43 0
-72 -43 0
73 72 0
-73 -72 0
74 44 0
-74 -44 0
75 74 0
-75 -74 0
76 52 0
-76 -52 0
77 76 0
-77 -76 0
78 45 0
-78 -45 0
79 78 0
-79 -78 0
80 53 0
-80 -53 0
81 80 0
-81 -80 0
82 46 0
-82 -46 0
83 82 0
-83 -82 0
84 54 0
-84 -54 0
85 84 0
-85 -84 0
86 47 0
-86 -47 0
87 86 0
-87 -86 0
88 40 0
-88 -40 0
89 88 0
-89 -88 0
90 48 0
-90 -48 0
91 90 0
-91 -90 0
92 41 0
-92 -41 0
93 92 0
-93 -92 0
94 49 0
-94 -49 0
95 94 0
-95 -94 0
96 50 0
-96 -50 0
97 96 0
-97 -96 0
98 51 0
-98 -51 0
99 98 0
-99 -98 0
100 55 0
-100 -55 0
101 58 0
-101 -58 0
102 59 0
-102 -59 0
103 60 0
-103 -60 0
104 61 0
-104 -61 0
105 62 0
-105 -62 0
106 63 0
-106 -63 0
107 64 0
-107 -64 0
108 65 0
-108 -65 0
109 66 0
-109 -66 0
110 69 0
-110 -69 0
111 101 0
-111 -101 0
112 101 0
-112 -101 0
113 101 0
-113 -101 0
114 101 0
-114 -101 0
115 101 0
-115 -101 0
116 101 0
-116 -101 0
117 101 0
-117 -101 0
118 105 0
-118 -105 0
119 106 0
-119 -106 0
120 107 0
-120 -107 0
121 108 0
-121 -108 0
122 109 0
-122 -109 0
-448 109 0
-448 108 0
448 -109 -108 0
-123 448 0
-123 107 0
123 -448 -107 0
-124 93 0
-124 111 0
124 -93 -111 0
-125 73 0
-125 112 0
125 -73 -112 0
-126 79 0
-126 113 0
126 -79 -113 0
-127 99 0
-127 114 0
127 -99 -114 0
-128 77 0
-128 115 0
128 -77 -115 0
-129 81 0
-129 116 0
129 -81 -116 0
-130 85 0
-130 117 0
130 -85 -117 0
-131 120 0
-131 57 0
131 -120 -57 0
-132 120 0
-132 57 0
132 -120 -57 0
-133 120 0
-133 57 0
133 -120 -57 0
-134 120 0
-134 57 0
134 -120 -57 0
-449 122 0
-449 119 0
449 -122 -119 0
-450 449 0
-450 118 0
450 -449 -118 0
-135 450 0
-135 57 0
135 -450 -57 0
-451 122 0
-451 106 0
451 -122 -106 0
-452 451 0
-452 118 0
452 -451 -118 0
-136 452 0
-136 57 0
136 -452 -57 0
-453 122 0
-453 119 0
453 -122 -119 0
-454 453 0
-454 105 0
454 -453 -105 0
-137 454 0
-137 57 0
137 -454 -57 0
-455 122 0
-455 106 0
455 -122 -106 0
-456 455 0
-456 105 0
456 -455 -105 0
-138 456 0
-138 57 0
138 -456 -57 0
457 -37 0
457 -136 0
-457 37 136 0
139 -457 0
139 -132 0
-139 457 132 0
458 -138 0
458 -39 0
-458 138 39 0
140 -458 0
140 -134 0
-140 458 134 0
141 130 0
-141 -130 0
142 141 0
-142 -141 0
143 139 0
-143 -139 0
144 140 0
-144 -140 0
145 143 0
-145 -143 0
146 144 0
-146 -144 0
147 123 0
-147 -123 0
148 124 0
-148 -124 0
149 148 0
-149 -148 0
150 124 0
-150 -124 0
151 150 0
-151 -150 0
152 125 0
-152 -125 0
153 152 0
-153 -152 0
154 125 0
-154 -125 0
155 154 0
-155 -154 0
156 126 0
-156 -126 0
157 156 0
-157 -156 0
158 126 0
-158 -126 0
159 158 0
-159 -158 0
160 127 0
-160 -127 0
161 160 0
-161 -160 0
162 128 0
-162 -128 0
-163 34 0
-163 151 0
163 -34 -151 0
-164 32 0
-164 155 0
164 -32 -155 0
-165 30 0
-165 159 0
165 -30 -159 0
-166 17 0
-166 161 0
166 -17 -161 0
-167 20 0
-167 142 0
167 -20 -142 0
168 162 0
-168 -162 0
169 129 0
-169 -129 0
170 143 0
170 139 0
-170 -143 -139 0
171 144 0
171 140 0
-171 -144 -140 0
172 145 0
172 170 0
-172 -145 -170 0
173 146 0
173 171 0
-173 -146 -171 0
174 153 0
-174 -153 0
175 174 0
-175 -174 0
176 157 0
-176 -157 0
177 176 0
-177 -176 0
178 169 0
-178 -169 0
179 147 0
-179 -147 0
180 163 0
-180 -163 0
181 175 0
-181 -175 0
182 164 0
-182 -164 0
183 177 0
-183 -177 0
184 165 0
-184 -165 0
185 149 0
-185 -149 0
186 185 0
-186 -185 0
187 172 0
-187 -172 0
188 187 0
-188 -187 0
189 173 0
-189 -173 0
190 189 0
-190 -189 0
-191 18 0
-191 168 0
191 -18 -168 0
-192 19 0
-192 178 0
192 -19 -178 0
-193 22 0
-193 188 0
193 -22 -188 0
-194 24 0
-194 190 0
194 -24 -190 0
195 193 0
-195 -193 0
196 194 0
-196 -194 0
197 194 0
-197 -194 0
198 195 0
-198 -195 0
199 197 0
-199 -197 0
200 198 0
-200 -198 0
201 200 0
-201 -200 0
202 199 0
-202 -199 0
203 202 0
-203 -202 0
204 201 0
-204 -201 0
205 179 0
-205 -179 0
206 205 0
-206 -205 0
207 204 0
-207 -204 0
208 203 0
-208 -203 0
209 186 0
-209 -186 0
210 207 0
-210 -207 0
211 208 0
-211 -208 0
212 210 0
-212 -210 0
213 193 0
-213 -193 0
-214 27 0
-214 206 0
214 -27 -206 0
-215 89 0
-215 211 0
215 -89 -211 0
-216 75 0
-216 212 0
216 -75 -212 0
217 208 0
217 57 0
-217 -208 -57 0
218 210 0
218 57 0
-218 -210 -57 0
219 215 0
-219 -215 0
220 219 0
-220 -219 0
221 215 0
-221 -215 0
222 221 0
-222 -221 0
223 216 0
-223 -216 0
224 223 0
-224 -223 0
225 216 0
-225 -216 0
226 225 0
-226 -225 0
-227 97 0
-227 217 0
227 -97 -217 0
-228 91 0
-228 218 0
228 -91 -218 0
-229 35 0
-229 222 0
229 -35 -222 0
-230 31 0
-230 226 0
230 -31 -226 0
231 228 0
-231 -228 0
232 231 0
-232 -231 0
233 228 0
-233 -228 0
234 233 0
-234 -233 0
235 220 0
-235 -220 0
236 235 0
-236 -235 0
237 224 0
-237 -224 0
238 237 0
-238 -237 0
239 232 0
-239 -232 0
240 239 0
-240 -239 0
241 236 0
-241 -236 0
242 229 0
-242 -229 0
243 238 0
-243 -238 0
244 230 0
-244 -230 0
245 227 0
-245 -227 0
246 245 0
-246 -245 0
247 227 0
-247 -227 0
248 247 0
-248 -247 0
249 240 0
-249 -240 0
250 241 0
-250 -241 0
-251 16 0
-251 248 0
251 -16 -248 0
-252 14 0
-252 234 0
252 -14 -234 0
-253 236 0
-253 208 0
253 -236 -208 0
-459 122 0
-459 236 0
459 -122 -236 0
-460 459 0
-460 106 0
460 -459 -106 0
-254 460 0
-254 105 0
254 -460 -105 0
-461 175 0
-461 238 0
461 -175 -238 0
-255 461 0
-255 210 0
255 -461 -210 0
-462 238 0
-462 106 0
462 -238 -106 0
-256 462 0
-256 118 0
256 -462 -118 0
-257 240 0
-257 56 0
257 -240 -56 0
-258 102 0
-258 240 0
258 -102 -240 0
-463 256 0
-463 122 0
463 -256 -122 0
-259 463 0
-259 175 0
259 -463 -175 0
-260 181 0
-260 243 0
260 -181 -243 0
-261 175 0
-261 243 0
261 -175 -243 0
-464 175 0
-464 243 0
464 -175 -243 0
-262 464 0
-262 207 0
262 -464 -207 0
-465 249 0
-465 36 0
465 -249 -36 0
-263 465 0
-263 56 0
263 -465 -56 0
264 -255 0
264 -261 0
-264 255 261 0
265 -262 0
265 -260 0
-265 262 260 0
266 250 0
-266 -250 0
267 246 0
-267 -246 0
268 267 0
-268 -267 0
269 268 0
-269 -268 0
270 251 0
-270 -251 0
271 264 0
-271 -264 0
272 265 0
-272 -265 0
273 271 0
-273 -271 0
274 252 0
-274 -252 0
275 272 0
-275 -272 0
-276 268 0
-276 56 0
276 -268 -56 0
-277 268 0
-277 100 0
277 -268 -100 0
-278 268 0
-278 56 0
278 -268 -56 0
-279 268 0
-279 56 0
279 -268 -56 0
-466 269 0
-466 38 0
466 -269 -38 0
-280 466 0
-280 56 0
280 -466 -56 0
467 -137 0
467 -280 0
-467 137 280 0
281 -467 0
281 -133 0
-281 467 133 0
282 -253 0
282 -266 0
-282 253 266 0
283 271 0
283 264 0
-283 -271 -264 0
284 272 0
284 265 0
-284 -272 -265 0
285 273 0
285 283 0
-285 -273 -283 0
286 275 0
286 284 0
-286 -275 -284 0
287 281 0
-287 -281 0
288 282 0
-288 -282 0
289 287 0
-289 -287 0
290 288 0
-290 -288 0
291 279 0
-291 -279 0
292 291 0
-292 -291 0
293 287 0
293 281 0
-293 -287 -281 0
294 288 0
294 282 0
-294 -288 -282 0
295 289 0
295 293 0
-295 -289 -293 0
296 290 0
296 294 0
-296 -290 -294 0
297 295 0
-297 -295 0
298 297 0
-298 -297 0
-299 23 0
-299 298 0
299 -23 -298 0
300 299 0
-300 -299 0
301 299 0
-301 -299 0
302 301 0
-302 -301 0
303 302 0
-303 -302 0
304 303 0
-304 -303 0
305 304 0
-305 -304 0
306 305 0
-306 -305 0
307 306 0
-307 -306 0
308 307 0
308 57 0
-308 -307 -57 0
309 307 0
-309 -307 0
-310 71 0
-310 309 0
310 -71 -309 0
-311 95 0
-311 308 0
311 -95 -308 0
312 310 0
-312 -310 0
313 312 0
-313 -312 0
314 310 0
-314 -310 0
315 314 0
-315 -314 0
316 311 0
-316 -311 0
317 316 0
-317 -316 0
318 311 0
-318 -311 0
319 318 0
-319 -318 0
320 313 0
-320 -313 0
321 320 0
-321 -320 0
322 317 0
-322 -317 0
323 322 0
-323 -322 0
324 321 0
-324 -321 0
325 317 0
-325 -317 0
-326 33 0
-326 315 0
326 -33 -315 0
-327 15 0
-327 319 0
327 -15 -319 0
-468 186 0
-468 321 0
468 -186 -321 0
-328 468 0
-328 307 0
328 -468 -307 0
-469 321 0
-469 119 0
469 -321 -119 0
-329 469 0
-329 105 0
329 -469 -105 0
-470 120 0
-470 236 0
470 -120 -236 0
-471 470 0
-471 186 0
471 -470 -186 0
-330 471 0
-330 321 0
330 -471 -321 0
-331 317 0
-331 56 0
331 -317 -56 0
-332 103 0
-332 317 0
332 -103 -317 0
-472 269 0
-472 317 0
472 -269 -317 0
-333 472 0
-333 56 0
333 -472 -56 0
-473 329 0
-473 122 0
473 -329 -122 0
-334 473 0
-334 186 0
334 -473 -186 0
-335 209 0
-335 324 0
335 -209 -324 0
-336 186 0
-336 324 0
336 -186 -324 0
-474 186 0
-474 324 0
474 -186 -324 0
-337 474 0
-337 306 0
337 -474 -306 0
-475 269 0
-475 325 0
475 -269 -325 0
-338 475 0
-338 249 0
338 -475 -249 0
-476 263 0
-476 269 0
476 -263 -269 0
-339 476 0
-339 325 0
339 -476 -325 0
-477 269 0
-477 325 0
477 -269 -325 0
-478 477 0
-478 240 0
478 -477 -240 0
-340 478 0
-340 56 0
340 -478 -56 0
-479 269 0
-479 325 0
479 -269 -325 0
-480 479 0
-480 240 0
480 -479 -240 0
-341 480 0
-341 56 0
341 -480 -56 0
342 -328 0
342 -336 0
-342 328 336 0
343 -337 0
343 -335 0
-343 337 335 0
481 -339 0
481 -135 0
-481 339 135 0
344 -481 0
344 -131 0
-344 481 131 0
345 341 0
-345 -341 0
346 342 0
-346 -342 0
347 343 0
-347 -343 0
348 344 0
-348 -344 0
349 345 0
-349 -345 0
350 346 0
-350 -346 0
351 347 0
-351 -347 0
352 348 0
-352 -348 0
353 326 0
-353 -326 0
354 327 0
-354 -327 0
355 333 0
-355 -333 0
356 346 0
356 342 0
-356 -346 -342 0
357 347 0
357 343 0
-357 -347 -343 0
358 348 0
358 344 0
-358 -348 -344 0
359 350 0
359 356 0
-359 -350 -356 0
360 351 0
360 357 0
-360 -351 -357 0
361 352 0
361 358 0
-361 -352 -358 0
362 361 0
-362 -361 0
363 362 0
-363 -362 0
364 355 0
-364 -355 0
-365 21 0
-365 363 0
365 -21 -363 0
366 365 0
-366 -365 0
367 365 0
-367 -365 0
368 367 0
-368 -367 0
369 368 0
-369 -368 0
370 369 0
-370 -369 0
371 370 0
-371 -370 0
372 371 0
-372 -371 0
373 372 0
-373 -372 0
374 373 0
-374 -373 0
375 373 0
375 57 0
-375 -373 -57 0
-376 83 0
-376 374 0
376 -83 -374 0
-377 87 0
-377 375 0
377 -87 -375 0
378 377 0
-378 -377 0
379 378 0
-379 -378 0
380 376 0
-380 -376 0
381 377 0
-381 -377 0
382 380 0
-382 -380 0
383 376 0
-383 -376 0
384 383 0
-384 -383 0
385 381 0
-385 -381 0
-386 29 0
-386 384 0
386 -29 -384 0
387 386 0
-387 -386 0
388 382 0
-388 -382 0
389 388 0
-389 -388 0
390 385 0
-390 -385 0
391 390 0
-391 -390 0
-392 13 0
-392 379 0
392 -13 -379 0
-482 389 0
-482 119 0
482 -389 -119 0
-393 482 0
-393 118 0
393 -482 -118 0
-483 177 0
-483 389 0
483 -177 -389 0
-394 483 0
-394 373 0
394 -483 -373 0
395 385 0
-395 -385 0
396 392 0
-396 -392 0
397 389 0
-397 -389 0
-484 338 0
-484 177 0
484 -338 -177 0
-485 484 0
-485 389 0
485 -484 -389 0
-398 485 0
-398 104 0
398 -485 -104 0
-486 175 0
-486 238 0
486 -175 -238 0
-487 486 0
-487 177 0
487 -486 -177 0
-399 487 0
-399 389 0
399 -487 -389 0
-400 385 0
-400 56 0
400 -385 -56 0
-401 104 0
-401 385 0
401 -104 -385 0
-488 249 0
-488 385 0
488 -249 -385 0
-402 488 0
-402 56 0
402 -488 -56 0
-489 393 0
-489 122 0
489 -393 -122 0
-403 489 0
-403 177 0
403 -489 -177 0
-404 330 0
-404 399 0
404 -330 -399 0
-405 183 0
-405 397 0
405 -183 -397 0
-406 177 0
-406 397 0
406 -177 -397 0
-490 177 0
-490 397 0
490 -177 -397 0
-407 490 0
-407 372 0
407 -490 -372 0
-491 249 0
-491 395 0
491 -249 -395 0
-408 491 0
-408 100 0
408 -491 -100 0
492 -398 0
492 -401 0
-492 398 401 0
409 -492 0
409 -400 0
-409 492 400 0
493 -334 0
493 -403 0
-493 334 403 0
410 -493 0
410 -121 0
-410 493 121 0
411 -394 0
411 -406 0
-411 394 406 0
412 -407 0
412 -405 0
-412 407 405 0
494 -410 0
494 -404 0
-494 410 404 0
495 -494 0
495 -254 0
-495 494 254 0
413 -495 0
413 -259 0
-413 495 259 0
414 409 0
-414 -409 0
415 411 0
-415 -411 0
-496 408 0
-496 236 0
496 -408 -236 0
-416 496 0
-416 325 0
416 -496 -325 0
417 412 0
-417 -412 0
418 414 0
-418 -414 0
-497 402 0
-497 269 0
497 -402 -269 0
-419 497 0
-419 325 0
419 -497 -325 0
-498 269 0
-498 325 0
498 -269 -325 0
-420 498 0
-420 395 0
420 -498 -395 0
-499 269 0
-499 249 0
499 -269 -249 0
-421 499 0
-421 395 0
421 -499 -395 0
422 417 0
-422 -417 0
423 415 0
-423 -415 0
424 413 0
-424 -413 0
425 415 0
425 411 0
-425 -415 -411 0
426 417 0
426 412 0
-426 -417 -412 0
427 424 0
427 413 0
-427 -424 -413 0
428 423 0
428 425 0
-428 -423 -425 0
429 422 0
429 426 0
-429 -422 -426 0
430 424 0
-430 -424 0
500 -416 0
500 -277 0
-500 416 277 0
431 -500 0
431 -276 0
-431 500 276 0
-501 421 0
-501 186 0
501 -421 -186 0
-502 501 0
-502 321 0
502 -501 -321 0
-432 502 0
-432 103 0
432 -502 -103 0
433 419 0
-433 -419 0
-503 420 0
-503 175 0
503 -420 -175 0
-504 503 0
-504 238 0
504 -503 -238 0
-434 504 0
-434 102 0
434 -504 -102 0
505 -434 0
505 -258 0
-505 434 258 0
435 -505 0
435 -257 0
-435 505 257 0
436 430 0
436 427 0
-436 -430 -427 0
437 436 0
-437 -436 0
506 -432 0
506 -332 0
-506 432 332 0
438 -506 0
438 -331 0
-438 506 331 0
439 435 0
-439 -435 0
440 433 0
-440 -433 0
441 438 0
-441 -438 0
442 437 0
-442 -437 0
-443 25 0
-443 442 0
443 -25 -442 0
444 431 0
-444 -431 0
445 439 0
-445 -439 0
446 444 0
-446 -444 0
447 441 0
-447 -441 0
-507 429 359 0
-507 -429 -359 0
507 -429 359 0
507 429 -359 0
-508 507 443 0
-508 -507 -443 0
508 -507 443 0
508 507 -443 0
-509 508 340 0
-509 -508 -340 0
509 -508 340 0
509 508 -340 0
-510 509 278 0
-510 -509 -278 0
510 -509 278 0
510 509 -278 0
-511 510 192 0
-511 -510 -192 0
511 -510 192 0
511 510 -192 0
-512 511 166 0
-512 -511 -166 0
512 -511 166 0
512 511 -166 0
512 0
-513 429 359 0
-513 -429 -359 0
513 -429 359 0
513 429 -359 0
-514 513 443 0
-514 -513 -443 0
514 -513 443 0
514 513 -443 0
-515 514 340 0
-515 -514 -340 0
515 -514 340 0
515 514 -340 0
-516 515 278 0
-516 -515 -278 0
516 -515 278 0
516 515 -278 0
-517 516 192 0
-517 -516 -192 0
517 -516 192 0
517 516 -192 0
-518 517 166 0
-518 -517 -166 0
518 -517 166 0
518 517 -166 0
518 0
-519 429 359 0
-519 -429 -359 0
519 -429 359 0
519 429 -359 0
-520 519 443 0
-520 -519 -443 0
520 -519 443 0
520 519 -443 0
-521 520 340 0
-521 -520 -340 0
521 -520 340 0
521 520 -340 0
-522 521 278 0
-522 -521 -278 0
522 -521 278 0
522 521 -278 0
-523 522 192 0
-523 -522 -192 0
523 -522 192 0
523 522 -192 0
-524 523 166 0
-524 -523 -166 0
524 -523 166 0
524 523 -166 0
524 0
-525 429 359 0
-525 -429 -359 0
525 -429 359 0
525 429 -359 0
-526 525 443 0
-526 -525 -443 0
526 -525 443 0
526 525 -443 0
-527 526 340 0
-527 -526 -340 0
527 -526 340 0
527 526 -340 0
-528 527 278 0
-528 -527 -278 0
528 -527 278 0
528 527 -278 0
-529 528 192 0
-529 -528 -192 0
529 -528 192 0
529 528 -192 0
-530 529 166 0
-530 -529 -166 0
530 -529 166 0
530 529 -166 0
530 0
-531 429 359 0
-531 -429 -359 0
531 -429 359 0
531 429 -359 0
-532 531 443 0
-532 -531 -443 0
532 -531 443 0
532 531 -443 0
-533 532 340 0
-533 -532 -340 0
533 -532 340 0
533 532 -340 0
-534 533 278 0
-534 -533 -278 0
534 -533 278 0
534 533 -278 0
-535 534 192 0
-535 -534 -192 0
535 -534 192 0
535 534 -192 0
-536 535 166 0
-536 -535 -166 0
536 -535 166 0
536 535 -166 0
536 0
-537 429 359 0
-537 -429 -359 0
537 -429 359 0
537 429 -359 0
-538 537 443 0
-538 -537 -443 0
538 -537 443 0
538 537 -443 0
-539 538 340 0
-539 -538 -340 0
539 -538 340 0
539 538 -340 0
-540 539 278 0
-540 -539 -278 0
540 -539 278 0
540 539 -278 0
-541 540 192 0
-541 -540 -192 0
541 -540 192 0
541 540 -192 0
-542 541 166 0
-542 -541 -166 0
542 -541 166 0
542 541 -166 0
542 0
-543 429 359 0
-543 -429 -359 0
543 -429 359 0
543 429 -359 0
-544 543 443 0
-544 -543 -443 0
544 -543 443 0
544 543 -443 0
-545 544 340 0
-545 -544 -340 0
545 -544 340 0
545 544 -340 0
-546 545 278 0
-546 -545 -278 0
546 -545 278 0
546 545 -278 0
-547 546 192 0
-547 -546 -192 0
547 -546 192 0
547 546 -192 0
-548 547 166 0
-548 -547 -166 0
548 -547 166 0
548 547 -166 0
548 0
-549 429 359 0
-549 -429 -359 0
549 -429 359 0
549 429 -359 0
-550 549 443 0
-550 -549 -443 0
550 -549 443 0
550 549 -443 0
-551 550 340 0
-551 -550 -340 0
551 -550 340 0
551 550 -340 0
-552 551 278 0
-552 -551 -278 0
552 -551 278 0
552 551 -278 0
-553 552 192 0
-553 -552 -192 0
553 -552 192 0
553 552 -192 0
-554 553 166 0
-554 -553 -166 0
554 -553 166 0
554 553 -166 0
554 0
-555 429 359 0
-555 -429 -359 0
555 -429 359 0
555 429 -359 0
-556 555 443 0
-556 -555 -443 0
556 -555 443 0
556 555 -443 0
-557 556 340 0
-557 -556 -340 0
557 -556 340 0
557 556 -340 0
-558 557 278 0
-558 -557 -278 0
558 -557 278 0
558 557 -278 0
-559 558 192 0
-559 -558 -192 0
559 -558 192 0
559 558 -192 0
-560 559 166 0
-560 -559 -166 0
560 -559 166 0
560 559 -166 0
560 0
-561 429 359 0
-561 -429 -359 0
561 -429 359 0
561 429 -359 0
-562 561 443 0
-562 -561 -443 0
562 -561 443 0
562 561 -443 0
-563 562 340 0
-563 -562 -340 0
563 -562 340 0
563 562 -340 0
-564 563 278 0
-564 -563 -278 0
564 -563 278 0
564 563 -278 0
-565 564 192 0
-565 -564 -192 0
565 -564 192 0
565 564 -192 0
-566 565 166 0
-566 -565 -166 0
566 -565 166 0
566 565 -166 0
566 0
-567 429 359 0
-567 -429 -359 0
567 -429 359 0
567 429 -359 0
-568 567 443 0
-568 -567 -443 0
568 -567 443 0
568 567 -443 0
-569 568 340 0
-569 -568 -340 0
569 -568 340 0
569 568 -340 0
-570 569 278 0
-570 -569 -278 0
570 -569 278 0
570 569 -278 0
-571 570 192 0
-571 -570 -192 0
571 -570 192 0
571 570 -192 0
-572 571 166 0
-572 -571 -166 0
572 -571 166 0
572 571 -166 0
572 0
-573 429 359 0
-573 -429 -359 0
573 -429 359 0
573 429 -359 0
-574 573 443 0
-574 -573 -443 0
574 -573 443 0
574 573 -443 0
-575 574 340 0
-575 -574 -340 0
575 -574 340 0
575 574 -340 0
-576 575 278 0
-576 -575 -278 0
576 -575 278 0
576 575 -278 0
-577 576 192 0
-577 -576 -192 0
577 -576 192 0
577 576 -192 0
-578 577 166 0
-578 -577 -166 0
578 -577 166 0
578 577 -166 0
578 0
-579 429 359 0
-579 -429 -359 0
579 -429 359 0
579 429 -359 0
-580 579 443 0
-580 -579 -443 0
580 -579 443 0
580 579 -443 0
-581 580 340 0
-581 -580 -340 0
581 -580 340 0
581 580 -340 0
-582 581 278 0
-582 -581 -278 0
582 -581 278 0
582 581 -278 0
-583 582 192 0
-583 -582 -192 0
583 -582 192 0
583 582 -192 0
-584 583 166 0
-584 -583 -166 0
584 -583 166 0
584 583 -166 0
584 0
-585 429 359 0
-585 -429 -359 0
585 -429 359 0
585 429 -359 0
-586 585 443 0
-586 -585 -443 0
586 -585 443 0
586 585 -443 0
-587 586 340 0
-587 -586 -340 0
587 -586 340 0
587 586 -340 0
-588 587 278 0
-588 -587 -278 0
588 -587 278 0
588 587 -278 0
-589 588 192 0
-589 -588 -192 0
589 -588 192 0
589 588 -192 0
-590 589 166 0
-590 -589 -166 0
590 -589 166 0
590 589 -166 0
590 0
-591 429 359 0
-591 -429 -359 0
591 -429 359 0
591 429 -359 0
-592 591 443 0
-592 -591 -443 0
592 -591 443 0
592 591 -443 0
-593 592 340 0
-593 -592 -340 0
593 -592 340 0
593 592 -340 0
-594 593 278 0
-594 -593 -278 0
594 -593 278 0
594 593 -278 0
-595 594 192 0
-595 -594 -192 0
595 -594 192 0
595 594 -192 0
-596 595 166 0
-596 -595 -166 0
596 -595 166 0
596 595 -166 0
596 0
